SYSTEM = Ag2Te
PREC = Accurate          # precision
ENCUT = 500 
ISTART = 0               # from scratch
ICHARG = 2               # Take superposition of atomic charge densities
EDIFF = 1.0e-07          # global break condition por the scf
ISMEAR = 0; SIGMA = 0.02 # gaussian smearing with its spread
MAGMOM = 1000*0.0         #Initial magnetic moment

#IALGO = 38              # algorithm used to optimized orbitals
#LORBIT = 11             # the way to write PROCAR and PROOUT
LREAL = .FALSE.          # projector operators act in reciprocal space (default)
#ADDGRID = .TRUE.        # adds additional support grid to evaluate augmention changes
#LWAVE = .FALSE.         # whether the wave funcions are written in WAVECAR file
#LCHARG = .FALSE.        # whether CHGCAR and CHG are written
NPAR = 12                # number of bands treated in parallel (default=number of cores)
LSORBIT = TRUE           # whether spin orbit is taken into account
ISPIN = 1                # Allows for non-collinear spin
